Route #1: 0 46 48 33 25 39 12 17 0
Route #2: 0 38 10 9 40 28 0
Route #3: 0 3 16 43 22 21 47 15 45 0
Route #4: 0 41 42 2 30 34 19 14 0
Route #5: 0 26 35 8 27 20 37 5 4 0
Route #6: 0 11 31 18 24 44 32 0
Route #7: 0 6 49 23 1 36 29 13 7 0
Cost 899:
